computational_data/solutions/Reg3_n30_s8.sol
Optimal - objective value 14.00000000
      1 r_1                         1                       1
      2 r_2                         1                       1
      5 r_5                         1                       1
     10 r_10                        1                       1
     13 r_13                        1                       1
     15 r_15                        1                       1
     28 r_28                        1                       1
     33 b_3                         1                       1
     36 b_6                         1                       1
     39 b_9                         1                       1
     46 b_16                        1                       1
     49 b_19                        1                       1
     51 b_21                        1                       1
     55 b_25                        1                       1
