computational_data/logs/Reg3_n30_s8.log
Welcome to the CBC MILP Solver 
Version: 2.10.12 
Build Date: Aug 20 2024 

command line - /opt/homebrew/bin/cbc computational_data/lp/Reg3_n30_s8.lp seconds 10.0 solve solu computational_data/solutions/Reg3_n30_s8.sol (default strategy 1)
seconds was changed from 1e+100 to 10
Continuous objective value is 12 - 0.00 seconds
Cgl0003I 0 fixed, 0 tightened bounds, 2 strengthened rows, 0 substitutions
Cgl0003I 0 fixed, 0 tightened bounds, 2 strengthened rows, 0 substitutions
Cgl0003I 0 fixed, 0 tightened bounds, 2 strengthened rows, 0 substitutions
Cgl0004I processed model has 178 rows, 60 columns (60 integer (60 of which binary)) and 594 elements
Cutoff increment increased from 1e-05 to 0.9999
Cbc0038I Initial state - 60 integers unsatisfied sum - 12
Cbc0038I Pass   1: suminf.   12.02665 (59) obj. 12.0266 iterations 1
Cbc0038I Pass   2: suminf.    7.66667 (23) obj. 14.3333 iterations 52
Cbc0038I Pass   3: suminf.    0.00000 (0) obj. 16 iterations 36
Cbc0038I Solution found of 16
Cbc0038I Before mini branch and bound, 0 integers at bound fixed and 0 continuous
Cbc0038I Full problem 178 rows 60 columns, reduced to 178 rows 60 columns - 5 fixed gives 94, 37 - ok now
Cbc0038I Full problem 178 rows 60 columns, reduced to 94 rows 37 columns
Cbc0038I Mini branch and bound improved solution from 16 to 15 (0.01 seconds)
Cbc0038I Round again with cutoff of 13.8001
Cbc0038I Pass   4: suminf.   12.02665 (59) obj. 12.0266 iterations 0
Cbc0038I Pass   5: suminf.    9.10948 (40) obj. 13.5181 iterations 56
Cbc0038I Pass   6: suminf.    7.76350 (35) obj. 13.8001 iterations 46
Cbc0038I Pass   7: suminf.    7.40761 (38) obj. 13.8001 iterations 12
Cbc0038I Pass   8: suminf.    7.39982 (34) obj. 13.8001 iterations 5
Cbc0038I Pass   9: suminf.    7.38833 (33) obj. 13.8001 iterations 43
Cbc0038I Pass  10: suminf.    6.06634 (18) obj. 13.8001 iterations 40
Cbc0038I Pass  11: suminf.    5.23593 (29) obj. 13.8001 iterations 11
Cbc0038I Pass  12: suminf.    5.18690 (36) obj. 13.8001 iterations 9
Cbc0038I Pass  13: suminf.    6.39982 (35) obj. 13.8001 iterations 38
Cbc0038I Pass  14: suminf.    5.25966 (28) obj. 13.8001 iterations 25
Cbc0038I Pass  15: suminf.    5.04975 (25) obj. 13.8001 iterations 13
Cbc0038I Pass  16: suminf.    5.88862 (40) obj. 13.8001 iterations 39
Cbc0038I Pass  17: suminf.    5.66637 (31) obj. 13.8001 iterations 24
Cbc0038I Pass  18: suminf.    5.07247 (34) obj. 13.8001 iterations 14
Cbc0038I Pass  19: suminf.   10.63332 (38) obj. 13.8001 iterations 53
Cbc0038I Pass  20: suminf.    4.69991 (17) obj. 13.8001 iterations 44
Cbc0038I Pass  21: suminf.    4.69991 (17) obj. 13.8001 iterations 10
Cbc0038I Pass  22: suminf.    4.69991 (14) obj. 13.8001 iterations 20
Cbc0038I Pass  23: suminf.    4.19946 (14) obj. 13.8001 iterations 22
Cbc0038I Pass  24: suminf.    3.96272 (40) obj. 13.8001 iterations 36
Cbc0038I Pass  25: suminf.    3.93291 (42) obj. 13.8001 iterations 8
Cbc0038I Pass  26: suminf.    8.04417 (29) obj. 13.8001 iterations 61
Cbc0038I Pass  27: suminf.    7.19991 (26) obj. 13.8001 iterations 27
Cbc0038I Pass  28: suminf.    7.19991 (28) obj. 13.8001 iterations 15
Cbc0038I Pass  29: suminf.    8.86658 (23) obj. 13.8001 iterations 38
Cbc0038I Pass  30: suminf.    7.23077 (26) obj. 13.0769 iterations 32
Cbc0038I Pass  31: suminf.    4.33333 (13) obj. 13.6667 iterations 16
Cbc0038I Pass  32: suminf.    3.39847 (13) obj. 13.8001 iterations 9
Cbc0038I Pass  33: suminf.    1.46819 (44) obj. 13.8001 iterations 57
Cbc0038I No solution found this major pass
Cbc0038I Before mini branch and bound, 0 integers at bound fixed and 0 continuous
Cbc0038I Full problem 178 rows 60 columns, reduced to 178 rows 60 columns - 12 fixed gives 21, 10 - ok now
Cbc0038I Mini branch and bound did not improve solution (0.03 seconds)
Cbc0038I After 0.03 seconds - Feasibility pump exiting with objective of 15 - took 0.02 seconds
Cbc0012I Integer solution of 15 found by feasibility pump after 0 iterations and 0 nodes (0.03 seconds)
Cbc0031I 2 added rows had average density of 60
Cbc0013I At root node, 2 cuts changed objective from 12 to 13 in 100 passes
Cbc0014I Cut generator 0 (Probing) - 0 row cuts average 0.0 elements, 0 column cuts (0 active)  in 0.008 seconds - new frequency is -100
Cbc0014I Cut generator 1 (Gomory) - 2178 row cuts average 59.9 elements, 0 column cuts (0 active)  in 0.030 seconds - new frequency is 1
Cbc0014I Cut generator 2 (Knapsack) - 1 row cuts average 5.0 elements, 0 column cuts (0 active)  in 0.003 seconds - new frequency is -100
Cbc0014I Cut generator 3 (Clique) - 0 row cuts average 0.0 elements, 0 column cuts (0 active)  in 0.004 seconds - new frequency is -100
Cbc0014I Cut generator 4 (MixedIntegerRounding2) - 109 row cuts average 60.0 elements, 0 column cuts (0 active)  in 0.017 seconds - new frequency is -100
Cbc0014I Cut generator 5 (FlowCover) - 0 row cuts average 0.0 elements, 0 column cuts (0 active)  in 0.001 seconds - new frequency is -100
Cbc0010I After 0 nodes, 1 on tree, 15 best solution, best possible 13 (0.19 seconds)
Cbc0012I Integer solution of 14 found by DiveCoefficient after 5047 iterations and 2 nodes (0.20 seconds)
Cbc0001I Search completed - best objective 14, took 7162 iterations and 42 nodes (0.40 seconds)
Cbc0032I Strong branching done 766 times (15744 iterations), fathomed 8 nodes and fixed 2 variables
Cbc0035I Maximum depth 10, 0 variables fixed on reduced cost
Cuts at root node changed objective from 12 to 13
Probing was tried 100 times and created 0 cuts of which 0 were active after adding rounds of cuts (0.008 seconds)
Gomory was tried 130 times and created 2182 cuts of which 0 were active after adding rounds of cuts (0.033 seconds)
Knapsack was tried 100 times and created 1 cuts of which 0 were active after adding rounds of cuts (0.003 seconds)
Clique was tried 100 times and created 0 cuts of which 0 were active after adding rounds of cuts (0.004 seconds)
MixedIntegerRounding2 was tried 100 times and created 109 cuts of which 0 were active after adding rounds of cuts (0.017 seconds)
FlowCover was tried 100 times and created 0 cuts of which 0 were active after adding rounds of cuts (0.001 seconds)
TwoMirCuts was tried 1 times and created 0 cuts of which 0 were active after adding rounds of cuts (0.001 seconds)
ZeroHalf was tried 1 times and created 0 cuts of which 0 were active after adding rounds of cuts (0.000 seconds)

Result - Optimal solution found

Objective value:                14.00000000
Enumerated nodes:               42
Total iterations:               7162
Time (CPU seconds):             0.40
Time (Wallclock seconds):       0.41

Total time (CPU seconds):       0.40   (Wallclock seconds):       0.41

